n_machines = 5;
n_resources = 7;
n_jobs = 36;
horizon = 189;
LB = 43;
n_jobs_per_resource = [3, 6, 6, 2, 5, 5, 9];
duration = [6, 5, 5, 8, 7, 6, 3, 4, 2, 1, 6, 8, 7, 8, 2, 2, 6, 6, 5, 7, 6, 7, 1, 8, 2, 9, 9, 9, 7, 5, 4, 5, 5, 3, 1, 4]